!*** FMO 5.2 (Gamess) INPUT generated by Facio 21.1.1.32 ***
 $CONTRL RUNTYP=ENERGY NPRINT=-2 ISPHER=1 MAXIT=200 SCFTYP=RHF $END
 $SYSTEM MEMDDI=0 MWORDS=300 $END
 $GDDI NGROUP=36 $END
 $SCF DIRSCF=.TRUE. FDIFF=.FALSE. DIIS=.TRUE. NPUNCH=0 $END
 $BASIS GBASIS=CCT $END
 $FMOPRP
    NPRINT=2
    MAXIT=100
 $END
 $FMO
      MODMUL=0
      NBODY=3
      NLAYER=1
      MPLEVL=2
      NFRAG=18
      ICHARG(1)=   0,  0, -1,  0,  0,  0,  0,  0,  0,  0,
                   0,  0,  0,  0,  0,  0,  0,  0
      FRGNAM(1)= Gly-1, Val-3, Glu-4, Gln-5, Cys-6, 
                 Cys-7, Thr-8, Ser-9, Ile-10, Ser-12, 
                 Gln-13, His-14, Leu-15, Gly-17, Ser-18, 
                 His-19, Leu-20, Val-21
      INDAT(1)= 0
                1    -25      0
               26    -41      0
               42    -56      0
               57    -73      0
               74    -84    139   -149      0
               85    -94    217   -226      0
               95   -108      0
              109   -119      0
              120   -138      0
              150   -164      0
              165   -180      0
              181   -197      0
              198   -216      0
              227   -233      0
              234   -244      0
              245   -261      0
              262   -280      0
              281   -300      0
      RESPAP=0 RESPPC=-1 RESDIM=200 RCORSD=6.5
      RITRIM(1)=2.5,-1.,2.5,2.5
 $END
 $MP2 CODE=IMS SCSPT=SCS SCSOPO=1.640 SCSPAR=0.0 $END
 $FMOHYB
 cc-pVTZ 35 5  
 1 0  0.091640  0.380441  0.080054  0.167614  0.000000  0.000000  0.348841
     -0.000002  0.000000  0.423641  0.000000  0.000000  0.204670 -0.013272
     -0.013272  0.026542  0.000000  0.000000  0.000000 -0.015051 -0.015051
      0.030102  0.000000  0.000000  0.000000  0.003803  0.000000  0.006681
      0.000000 -0.004483 -0.005103 -0.004483  0.000000  0.000000  0.000000
 0 1  0.091646  0.380470  0.080059  0.167626  0.328879  0.000000 -0.116272
      0.399400  0.000000 -0.141206  0.192959  0.000000 -0.068219  0.022118
     -0.013270 -0.008847  0.000000 -0.014448  0.000000  0.025084 -0.015051
     -0.010033  0.000000 -0.016386  0.000000  0.004690  0.000000  0.005910
      0.000000 -0.004611 -0.005927 -0.003318 -0.000367  0.000000  0.000000
 0 1  0.091645  0.380461  0.080057  0.167622 -0.164445 -0.284822 -0.116271
     -0.199706 -0.345894 -0.141203 -0.096482 -0.167109 -0.068218 -0.004425
      0.013270 -0.008847  0.017695  0.007225  0.012513 -0.005017  0.015051
     -0.010033  0.020068  0.008193  0.014191  0.004383 -0.000177  0.005910
     -0.000079 -0.003641 -0.006065 -0.004287  0.000183  0.000317 -0.000648
 0 1  0.091645  0.380461  0.080057  0.167622 -0.164445  0.284822 -0.116271
     -0.199706  0.345894 -0.141203 -0.096482  0.167109 -0.068218 -0.004425
      0.013270 -0.008847 -0.017695  0.007225 -0.012513 -0.005017  0.015051
     -0.010033 -0.020068  0.008193 -0.014191  0.004383  0.000177  0.005910
      0.000079 -0.003641 -0.006065 -0.004287  0.000183 -0.000317  0.000648
 0 1  0.971450 -0.053748  0.029900 -0.018485  0.000000  0.000000  0.000000
      0.000000  0.000000  0.000000  0.000000  0.000000  0.000000  0.000000
      0.000000  0.000000  0.000000  0.000000  0.000000  0.000000  0.000000
      0.000000  0.000000  0.000000  0.000000 -0.000143  0.000000 -0.000202
      0.000000  0.000135  0.000192  0.000135  0.000000  0.000000  0.000000
 CC-PVDZ       15  5
 1 0   0.071355    0.326228    0.222967    0.000000    0.000000
        0.659127    0.000000    0.000000    0.307872   -0.024953
       -0.024953    0.038295    0.000000    0.000000    0.000000
 0 1   0.071360    0.326258    0.222995    0.621412    0.000000
       -0.219695    0.290253    0.000000   -0.102621    0.031266
       -0.024953   -0.017926    0.000000   -0.022950    0.000000
 0 1   0.071358    0.326252    0.222989   -0.310712   -0.538163
       -0.219691   -0.145129   -0.251368   -0.102619   -0.010899
        0.017212   -0.017926    0.028111    0.011476    0.019875
 0 1   0.071358    0.326252    0.222989   -0.310712    0.538163
       -0.219691   -0.145129    0.251368   -0.102619   -0.010899
        0.017212   -0.017926   -0.028111    0.011476   -0.019875
 0 1   0.996115   -0.035863   -0.029506    0.000000    0.000000
        0.000000    0.000000    0.000000    0.000000   -0.001868
       -0.001868   -0.001868    0.000000    0.000000    0.000000
 $END
 $FMOBND
       -11        26  cc-pVTZ      cc-pVDZ
       -30        42  cc-pVTZ      cc-pVDZ
       -46        57  cc-pVTZ      cc-pVDZ
       -61        74  cc-pVTZ      cc-pVDZ
       -78        85  cc-pVTZ      cc-pVDZ
       -89        95  cc-pVTZ      cc-pVDZ
       -99       109  cc-pVTZ      cc-pVDZ
      -113       120  cc-pVTZ      cc-pVDZ
      -124       139  cc-pVTZ      cc-pVDZ
      -143       150  cc-pVTZ      cc-pVDZ
      -168       181  cc-pVTZ      cc-pVDZ
      -185       198  cc-pVTZ      cc-pVDZ
      -202       217  cc-pVTZ      cc-pVDZ
      -221       227  cc-pVTZ      cc-pVDZ
      -231       234  cc-pVTZ      cc-pVDZ
      -238       245  cc-pVTZ      cc-pVDZ
      -249       262  cc-pVTZ      cc-pVDZ
      -266       281  cc-pVTZ      cc-pVDZ
 $END
 $DATA
 FMO calculation : 1g7b_initialFacio.pdb
 C1 
 N.1-1    7
 H.1-1    1
 C.1-1    6
 S.1-1   16
 O.1-1    8
 $END
 $FMOXYZ
      1      N           -6.429       33.029       53.482
      2      H           -5.666       32.513       52.999
      3      H           -6.374       32.823       54.500
      4      C           -7.774       32.533       53.076
      5      H           -8.431       32.973       53.812
      6      H           -7.604       31.486       52.870
      7      C           -8.041       33.305       51.825
      8      O           -7.527       34.408       51.635
      9      N           -8.927       32.803       50.909
     10      H           -9.483       31.993       51.078
     11      C           -9.136       33.290       49.552
     12      H           -8.230       33.008       49.036
     13      C          -10.119       32.440       48.732
     14      H          -10.183       32.901       47.723
     15      C           -9.541       30.992       48.550
     16      H          -10.366       30.400       48.100
     17      H           -8.672       30.971       47.859
     18      H           -9.331       30.525       49.536
     19      C          -11.510       32.274       49.257
     20      H          -11.677       32.683       50.276
     21      H          -11.861       31.219       49.253
     22      C          -12.506       33.075       48.490
     23      H          -12.411       34.177       48.597
     24      H          -12.545       32.750       47.428
     25      H          -13.511       32.893       48.927
     26      C           -9.251       34.805       49.253
     27      O           -8.635       35.371       48.343
     28      N          -10.119       35.493       50.080
     29      H          -10.585       35.059       50.847
     30      C          -10.463       36.885       49.852
     31      H          -10.740       36.921       48.809
     32      C          -11.795       37.384       50.601
     33      H          -12.085       38.345       50.126
     34      C          -12.933       36.438       50.399
     35      H          -12.714       35.392       50.704
     36      H          -13.795       36.827       50.981
     37      H          -13.217       36.428       49.325
     38      C          -11.576       37.599       52.076
     39      H          -11.121       36.681       52.506
     40      H          -10.903       38.475       52.190
     41      H          -12.487       37.865       52.654
     42      C           -9.317       37.875       50.177
     43      O           -9.369       39.084       49.880
     44      N           -8.220       37.435       50.853
     45      H           -8.178       36.448       50.987
     46      C           -7.045       38.175       51.266
     47      H           -7.284       39.176       51.594
     48      C           -6.357       37.175       52.251
     49      H           -5.403       37.694       52.487
     50      H           -6.185       36.152       51.854
     51      C           -7.101       37.082       53.599
     52      H           -7.987       36.417       53.517
     53      H           -7.413       38.125       53.822
     54      C           -6.326       36.528       54.776
     55      O           -5.779       35.362       54.708
     56      O           -6.055       37.247       55.768
     57      C           -6.080       38.279       50.155
     58      O           -4.906       38.797       50.231
     59      N           -6.327       37.682       49.000
     60      H           -7.182       37.175       48.934
     61      C           -5.388       37.432       47.937
     62      H           -4.441       37.188       48.396
     63      C           -5.688       36.157       47.157
     64      H           -5.118       36.164       46.203
     65      H           -6.713       36.178       46.729
     66      C           -5.458       34.740       47.812
     67      H           -5.861       34.048       47.042
     68      H           -6.188       34.651       48.646
     69      C           -4.052       34.519       48.338
     70      O           -3.797       34.288       49.517
     71      N           -3.121       34.560       47.282
     72      H           -3.488       34.826       46.391
     73      H           -2.149       34.376       47.428
     74      C           -5.001       38.566       46.958
     75      O           -4.045       38.390       46.220
     76      N           -5.785       39.632       46.917
     77      H           -6.603       39.792       47.465
     78      C           -5.678       40.618       45.799
     79      H           -4.665       40.575       45.428
     80      C           -6.607       40.092       44.628
     81      H           -7.643       40.161       45.024
     82      H           -6.511       38.989       44.541
     83      C           -6.508       40.681       43.227
     84      H           -6.604       41.771       43.112
     85      C           -6.035       42.029       46.243
     86      O           -6.688       42.762       45.528
     87      N           -5.686       42.343       47.484
     88      H           -4.965       41.887       48.001
     89      C           -6.231       43.486       48.234
     90      H           -6.864       44.108       47.620
     91      C           -7.053       42.960       49.431
     92      H           -6.424       42.374       50.135
     93      H           -7.790       42.248       49.002
     94      S           -7.755       44.252       50.460
     95      C           -5.047       44.366       48.626
     96      O           -5.113       45.583       48.632
     97      N           -3.855       43.786       48.828
     98      H           -3.841       42.791       48.899
     99      C           -2.614       44.584       49.015
    100      H           -2.895       45.601       49.244
    101      C           -1.692       43.954       50.128
    102      H           -2.354       43.494       50.892
    103      O           -0.864       44.922       50.801
    104      H           -1.274       45.765       50.594
    105      C           -0.807       42.792       49.684
    106      H           -0.308       42.308       50.551
    107      H           -1.400       41.994       49.190
    108      H           -0.003       43.231       49.055
    109      C           -1.808       44.534       47.797
    110      O           -0.848       45.316       47.754
    111      N           -2.143       43.670       46.802
    112      H           -3.025       43.213       46.720
    113      C           -1.467       43.555       45.570
    114      H           -0.766       44.371       45.472
    115      C           -0.700       42.276       45.444
    116      H            0.107       42.144       46.196
    117      H           -0.184       42.276       44.460
    118      O           -1.459       41.083       45.346
    119      H           -1.740       40.785       46.215
    120      C           -2.539       43.626       44.515
    121      O           -3.722       43.532       44.744
    122      N           -2.164       43.965       43.324
    123      H           -1.244       44.343       43.253
    124      C           -3.097       44.229       42.245
    125      H           -4.038       44.610       42.614
    126      C           -2.492       45.296       41.404
    127      H           -2.151       46.126       42.058
    128      C           -1.374       44.729       40.558
    129      H           -0.885       45.502       39.928
    130      H           -0.530       44.383       41.193
    131      H           -1.710       43.950       39.841
    132      C           -3.685       45.924       40.619
    133      H           -4.525       46.231       41.279
    134      H           -4.068       45.201       39.867
    135      C           -3.266       47.153       39.816
    136      H           -2.365       47.034       39.177
    137      H           -4.147       47.248       39.146
    138      H           -3.135       48.035       40.478
    139      C           -3.468       42.916       41.503
    140      O           -2.654       41.973       41.573
    141      N           -4.698       42.686       40.898
    142      H           -5.424       43.364       40.977
    143      C           -4.975       41.500       40.178
    144      H           -4.139       40.829       40.309
    145      C           -6.229       40.628       40.748
    146      H           -6.288       39.734       40.091
    147      H           -7.196       41.169       40.665
    148      C           -6.102       40.041       42.105
    149      H           -5.662       39.034       42.071
    150      C           -5.159       41.834       38.677
    151      O           -5.702       42.849       38.344
    152      N           -4.623       40.954       37.883
    153      H           -4.110       40.163       38.207
    154      C           -4.667       41.007       36.412
    155      H           -5.053       41.945       36.042
    156      C           -3.317       40.765       35.759
    157      H           -2.557       41.559       35.922
    158      H           -3.398       40.792       34.651
    159      O           -2.662       39.589       36.294
    160      H           -2.071       39.822       37.014
    161      C           -5.673       39.873       35.991
    162      O           -6.015       39.419       36.814
    163      O           -5.747       39.857       34.994
    164      H           -6.387       39.137       34.726
    165      N           -6.824       45.734       39.070
    166      H           -6.905       46.332       38.273
    167      H           -7.329       44.885       38.913
    168      C           -7.390       46.417       40.239
    169      H           -6.940       47.367       40.485
    170      C           -8.832       46.899       39.890
    171      H           -8.768       47.547       38.990
    172      H           -9.134       47.668       40.633
    173      C           -9.844       45.786       39.682
    174      H          -10.004       45.304       40.670
    175      H           -9.437       45.058       38.948
    176      C          -11.145       46.339       39.137
    177      O          -12.112       46.729       39.900
    178      N          -11.187       46.465       37.789
    179      H          -12.125       46.570       37.461
    180      H          -10.504       46.098       37.157
    181      C           -7.325       45.622       41.490
    182      O           -7.226       44.416       41.434
    183      N           -7.113       46.309       42.660
    184      H           -6.929       47.283       42.549
    185      C           -7.132       45.738       43.972
    186      H           -6.514       44.854       44.038
    187      C           -6.527       46.733       44.906
    188      H           -6.654       46.243       45.895
    189      H           -7.153       47.651       44.937
    190      N           -4.613       47.867       43.603
    191      C           -5.066       47.075       44.679
    192      C           -3.316       48.018       43.811
    193      H           -2.582       48.422       43.114
    194      N           -2.915       47.409       44.954
    195      H           -2.036       47.406       45.431
    196      C           -4.031       46.825       45.501
    197      H           -3.914       46.345       46.464
    198      C           -8.581       45.413       44.312
    199      O           -9.435       46.157       43.968
    200      N           -8.803       44.184       44.867
    201      H           -8.115       43.483       45.039
    202      C          -10.180       43.675       44.946
    203      H          -10.923       44.427       44.727
    204      C          -10.338       42.484       43.961
    205      H          -11.183       41.879       44.356
    206      H           -9.469       41.842       44.220
    207      C          -10.321       42.760       42.453
    208      H           -9.531       43.519       42.271
    209      C           -9.990       41.531       41.660
    210      H          -10.791       40.762       41.643
    211      H           -9.820       41.669       40.571
    212      H           -9.008       41.191       42.053
    213      C          -11.630       43.290       41.897
    214      H          -11.787       44.324       42.273
    215      H          -11.771       43.303       40.795
    216      H          -12.492       42.694       42.265
    217      C          -10.393       43.157       46.346
    218      O          -10.105       41.962       46.631
    219      N          -10.820       43.984       47.303
    220      H          -10.854       44.950       47.059
    221      C          -10.966       43.554       48.688
    222      H          -10.260       42.757       48.869
    223      C          -10.587       44.744       49.567
    224      H          -10.759       44.539       50.645
    225      H          -11.210       45.643       49.373
    226      S           -8.831       45.348       49.241
    227      C          -12.415       43.044       48.926
    228      O          -13.307       43.337       48.190
    229      N          -12.617       42.217       49.899
    230      H          -11.837       42.064       50.501
    231      C          -13.840       41.404       50.224
    232      H          -14.562       42.132       50.563
    233      H          -13.478       40.568       50.804
    234      C          -14.547       40.703       49.073
    235      O          -13.951       39.907       48.352
    236      N          -15.820       40.907       48.899
    237      H          -16.337       41.624       49.361
    238      C          -16.690       40.203       47.920
    239      H          -16.609       39.143       48.112
    240      C          -18.170       40.487       48.031
    241      H          -18.762       39.823       47.366
    242      H          -18.429       41.546       47.817
    243      O          -18.671       40.304       49.365
    244      H          -18.475       39.374       49.497
    245      C          -16.370       40.548       46.464
    246      O          -16.776       39.760       45.589
    247      N          -15.627       41.614       46.219
    248      H          -15.382       42.287       46.912
    249      C          -15.173       42.027       44.915
    250      H          -16.096       42.023       44.355
    251      C          -14.488       43.421       44.936
    252      H          -14.125       43.604       43.902
    253      H          -13.620       43.291       45.618
    254      N          -16.590       44.706       44.932
    255      C          -15.325       44.545       45.450
    256      C          -16.981       45.953       45.185
    257      H          -17.907       46.408       44.834
    258      N          -16.008       46.621       45.891
    259      H          -16.067       47.544       46.271
    260      C          -15.017       45.698       46.187
    261      H          -14.078       45.952       46.663
    262      C          -14.371       40.952       44.177
    263      O          -14.598       40.762       42.982
    264      N          -13.419       40.267       44.827
    265      H          -13.255       40.458       45.792
    266      C          -12.672       39.151       44.279
    267      H          -12.208       39.481       43.361
    268      C          -11.430       38.791       45.184
    269      H          -11.743       38.515       46.213
    270      H          -10.813       39.714       45.208
    271      C          -10.629       37.514       44.838
    272      H          -11.339       36.707       44.558
    273      C           -9.754       37.733       43.595
    274      H           -9.437       36.723       43.259
    275      H          -10.455       38.144       42.838
    276      H           -8.941       38.474       43.752
    277      C           -9.640       37.173       45.963
    278      H           -8.961       36.386       45.571
    279      H           -9.031       38.070       46.207
    280      H          -10.214       36.740       46.810
    281      C          -13.464       37.958       43.842
    282      O          -13.321       37.404       42.785
    283      N          -14.452       37.600       44.692
    284      H          -14.278       37.982       45.596
    285      C          -15.402       36.516       44.517
    286      H          -14.899       35.589       44.283
    287      C          -16.015       36.326       45.944
    288      H          -16.505       37.255       46.308
    289      C          -16.886       35.113       46.139
    290      H          -17.791       35.196       45.501
    291      H          -16.397       34.126       45.996
    292      H          -17.205       35.035       47.201
    293      C          -14.942       36.290       47.079
    294      H          -14.418       35.321       47.215
    295      H          -14.259       37.163       47.153
    296      H          -15.623       36.320       47.956
    297      C          -16.456       36.743       43.464
    298      O          -16.313       37.641       43.049
    299      O          -17.054       35.943       43.424
    300      H          -17.754       36.093       42.726
 $END      
