 $SYSTEM MEMDDI=0 MWORDS=380 $END
 $CONTRL MPLEVL=2 SCFTYP=RHF RUNTYP=OPTIMIZE 
  MAXIT=200 ISPHER=1 ICHARG=0 $END
 $SCF DIRSCF=.TRUE. FDIFF=.FALSE. DIIS=.TRUE. $END
 $BASIS GBASIS=CCD $END
 $MP2 CODE=IMS SCSOPO=1.752 SCSPAR=0.0 SCSPT=SCS $END
 $PCM SOLVNT=WATER SMD=.TRUE.
  ICOMP=ICAV=IDISP=IREP=IDP=0 $END
 $DATA
optimize-water
C1
O      8.0      0.8464667723    3.2483730886    0.0181568498
H      1.0      1.8357931104    3.2187545548   -0.0128189883
H      1.0      0.5571013542    2.5938841148   -0.6663248530
 $END
