 $SYSTEM MWORDS=380 MEMDDI=0 $END
 $CONTRL MPLEVL=2 SCFTYP=RHF RUNTYP=OPTIMIZE
  MAXIT=200 ISPHER=1 $END
 $GDDI NGROUP=4 $END
 $SCF DIRSCF=.TRUE. FDIFF=.FALSE. DIIS=.TRUE. $END
 $BASIS GBASIS=CCD $END
 $FMO
    NFRAG=4 NBODY=2
    MPLEVL(1)=2
    INDAT(1)=0,1,-7,
             0,8,-28,
             0,29,-49,
             0,50,-56,
             0
    ICHARG(1)=-1,1,1,-1
    RESPAP=0 RESPPC=-1 RESDIM=100 RCORSD=100
 $END
 $FMOPRP MAXIT=400 $END
 $MP2 CODE=IMS SCSPT=SCS SCSOPO=1.752 SCSPAR=0.0 $END
 $DATA
title
C1
 O 8.0
 N 7.0
 C 6.0
 H 1.0
 $END
 $FMOXYZ
 C    6.0    -10.064621759      5.073050226     -4.467878424
 H    1.0    -11.076557354      4.617271507     -4.457960737
 H    1.0    -10.136363073      6.143137516     -4.198103759
 H    1.0     -9.667269382      4.971821618     -5.499044407
 C    6.0     -9.148102988      4.317979501     -3.489502681
 O    8.0     -8.630047370      4.939331484     -2.525326385
 O    8.0     -8.970503480      3.052209575     -3.731883376
 N    7.0     -7.879559684      0.548629812     -1.667891763
 C    6.0     -7.254764886     -0.440017243     -0.715554000
 H    1.0     -6.462505282      0.073694541     -0.141795513
 H    1.0     -6.842504707     -1.261900425     -1.331877251
 H    1.0     -8.044445497     -0.809667290     -0.033365861
 C    6.0     -8.961082320     -0.168538578     -2.451185613
 H    1.0     -9.313667530      0.507295129     -3.262774189
 H    1.0     -9.781616791     -0.416399871     -1.749659964
 H    1.0     -8.489159260     -1.073438026     -2.877972798
 C    6.0     -6.818143356      1.006543239     -2.654875400
 H    1.0     -5.964260192      1.405359521     -2.083306367
 H    1.0     -7.276499320      1.815674091     -3.248946163
 H    1.0     -6.544663981      0.108043434     -3.237884594
 C    6.0     -8.535132322      1.715121888     -0.933228867
 H    1.0     -9.122625610      2.240364140     -1.708828333
 H    1.0     -9.207105789      1.246568464     -0.182400900
 C    6.0     -7.587853530      2.723413050     -0.254037266
 H    1.0     -6.893765603      2.208069318      0.446470383
 H    1.0     -8.259921419      3.357394347      0.377042602
 O    8.0     -6.811748725      3.484847969     -1.153637241
 H    1.0     -7.470833803      4.032195636     -1.683869169
 H    1.0    -10.720390350     -0.783106045     -5.300471117
 C    6.0    -10.315983134     -1.682399032     -5.792118900
 H    1.0     -9.740245850     -2.333141020     -5.106416874
 H    1.0    -11.112359527     -2.249610335     -6.312338880
 H    1.0    -10.538570477      0.460979657     -7.363400473
 C    6.0    -10.053158503     -0.385394353     -7.880123652
 H    1.0    -10.803749984     -1.034081078     -8.368906006
 H    1.0     -9.319045868     -0.028540649     -8.626589235
 N    7.0     -9.331760879     -1.214912127     -6.850339384
 H    1.0     -9.570665495     -3.025746885     -7.945718126
 C    6.0     -8.736906399     -2.439011052     -7.514774275
 H    1.0     -8.209377018     -3.013333090     -6.728256138
 H    1.0     -8.058747086     -2.095338271     -8.318553133
 C    6.0     -8.194979385     -0.423242529     -6.181321128
 H    1.0     -7.968651543     -0.956291682     -5.238031846
 H    1.0     -7.319124487     -0.520915062     -6.856914186
 O    8.0     -9.735528480      1.243964816     -5.286078257
 H    1.0     -9.581075022      2.104498805     -4.733580974
 C    6.0     -8.510309851      1.064622893     -5.983482458
 H    1.0     -8.524893871      1.584919359     -6.972337550
 H    1.0     -7.647988211      1.489170779     -5.422255808
 H    1.0     -6.341068134     -4.886828152     -2.773718195
 C    6.0     -6.014130577     -4.374842086     -3.704325986
 H    1.0     -6.023865405     -5.116683296     -4.526661845
 H    1.0     -4.986365645     -3.995992263     -3.537066558
 O    8.0     -6.754012091     -2.107634918     -3.376193990
 C    6.0     -6.984440747     -3.204594879     -3.996712222
 O    8.0     -7.950300971     -3.431822079     -4.798064765
 $END
