 $SYSTEM MWORDS=400 MEMDDI=0 $END
 $CONTRL SCFTYP=RHF RUNTYP=ENERGY MAXIT=200 ISPHER=1 $END
 $GDDI NGROUP=71 $END
 $SCF DIRSCF=.TRUE. FDIFF=.FALSE. DIIS=.TRUE. $END
 $BASIS GBASIS=CCT $END
 $FMO
    NFRAG=71 NBODY=3 NACUT=12
    MPLEVL(1)=2
    RESPAP=0 RESPPC=-1 RESDIM=250 RCORSD=200
    RITRIM(1)=100,100,100,100
    MODMOL=1 MOLFRG=42
 $END
 $FMOPRP IREST=4 MODPAR=77 $END
 $MP2 CODE=IMS SCSPT=SCS SCSOPO=1.64 SCSPAR=0.0 $END
 $DATA
SP_FMO1_VTZ
C1
 C 6.0
 H 1.0
 $END
 $FMOXYZ
C      6.0      -0.398525      10.824719       6.901519
H      1.0      -0.655353      11.719167       6.896687
C      6.0       0.566792      10.374641       7.816844
H      1.0       0.933583      10.961741       8.438105
C      6.0      -0.959413       9.947399       6.017948
H      1.0      -1.617718      10.242377       5.430511
C      6.0       0.398525       8.206081       6.904281
H      1.0       0.655353       7.311633       6.909113
C      6.0      -0.566792       8.656159       5.988956
H      1.0      -0.933583       8.069059       5.367695
C      6.0       0.959413       9.083401       7.787852
H      1.0       1.617718       8.788423       8.375289
C      6.0      -0.398525      10.824719      13.804419
H      1.0      -0.655353      11.719167      13.799587
C      6.0       0.566792      10.374641      14.719744
H      1.0       0.933583      10.961741      15.341005
C      6.0      -0.959413       9.947399      12.920848
H      1.0      -1.617718      10.242377      12.333411
C      6.0       0.398525       8.206081      13.807181
H      1.0       0.655353       7.311633      13.812013
C      6.0      -0.566792       8.656159      12.891856
H      1.0      -0.933583       8.069059      12.270595
C      6.0       0.959413       9.083401      14.690752
H      1.0       1.617718       8.788423      15.278189
C      6.0      -0.398525      20.340119       6.901519
H      1.0      -0.655353      21.234567       6.896687
C      6.0       0.566792      19.890041       7.816844
H      1.0       0.933583      20.477141       8.438105
C      6.0      -0.959413      19.462799       6.017948
H      1.0      -1.617718      19.757777       5.430511
C      6.0       0.398525      17.721481       6.904281
H      1.0       0.655353      16.827033       6.909113
C      6.0      -0.566792      18.171559       5.988956
H      1.0      -0.933583      17.584459       5.367695
C      6.0       0.959413      18.598801       7.787852
H      1.0       1.617718      18.303823       8.375289
C      6.0      -0.398525      20.340119      13.804419
H      1.0      -0.655353      21.234567      13.799587
C      6.0       0.566792      19.890041      14.719744
H      1.0       0.933583      20.477141      15.341005
C      6.0      -0.959413      19.462799      12.920848
H      1.0      -1.617718      19.757777      12.333411
C      6.0       0.398525      17.721481      13.807181
H      1.0       0.655353      16.827033      13.812013
C      6.0      -0.566792      18.171559      12.891856
H      1.0      -0.933583      17.584459      12.270595
C      6.0       0.959413      18.598801      14.690752
H      1.0       1.617718      18.303823      15.278189
C      6.0       6.981575      10.824719      -0.001381
H      1.0       6.724747      11.719167      -0.006213
C      6.0       7.946892      10.374641       0.913944
H      1.0       8.313683      10.961741       1.535205
C      6.0       6.420687       9.947399      -0.884952
H      1.0       5.762382      10.242377      -1.472389
C      6.0       7.778625       8.206081       0.001381
H      1.0       8.035453       7.311633       0.006213
C      6.0       6.813308       8.656159      -0.913944
H      1.0       6.446517       8.069059      -1.535205
C      6.0       8.339513       9.083401       0.884952
H      1.0       8.997818       8.788423       1.472389
C      6.0       6.981575      10.824719       6.901519
H      1.0       6.724747      11.719167       6.896687
C      6.0       7.946892      10.374641       7.816844
H      1.0       8.313683      10.961741       8.438105
C      6.0       6.420687       9.947399       6.017948
H      1.0       5.762382      10.242377       5.430511
C      6.0       7.778625       8.206081       6.904281
H      1.0       8.035453       7.311633       6.909113
C      6.0       6.813308       8.656159       5.988956
H      1.0       6.446517       8.069059       5.367695
C      6.0       8.339513       9.083401       7.787852
H      1.0       8.997818       8.788423       8.375289
C      6.0       6.981575      10.824719      13.804419
H      1.0       6.724747      11.719167      13.799587
C      6.0       7.946892      10.374641      14.719744
H      1.0       8.313683      10.961741      15.341005
C      6.0       6.420687       9.947399      12.920848
H      1.0       5.762382      10.242377      12.333411
C      6.0       7.778625       8.206081      13.807181
H      1.0       8.035453       7.311633      13.812013
C      6.0       6.813308       8.656159      12.891856
H      1.0       6.446517       8.069059      12.270595
C      6.0       8.339513       9.083401      14.690752
H      1.0       8.997818       8.788423      15.278189
C      6.0       6.981575      10.824719      20.707319
H      1.0       6.724747      11.719167      20.702487
C      6.0       7.946892      10.374641      21.622644
H      1.0       8.313683      10.961741      22.243905
C      6.0       6.420687       9.947399      19.823748
H      1.0       5.762382      10.242377      19.236311
C      6.0       7.778625       8.206081      20.710081
H      1.0       8.035453       7.311633      20.714913
C      6.0       6.813308       8.656159      19.794756
H      1.0       6.446517       8.069059      19.173495
C      6.0       8.339513       9.083401      21.593652
H      1.0       8.997818       8.788423      22.181089
C      6.0       6.981575      20.340119      -0.001381
H      1.0       6.724747      21.234567      -0.006213
C      6.0       7.946892      19.890041       0.913944
H      1.0       8.313683      20.477141       1.535205
C      6.0       6.420687      19.462799      -0.884952
H      1.0       5.762382      19.757777      -1.472389
C      6.0       7.778625      17.721481       0.001381
H      1.0       8.035453      16.827033       0.006213
C      6.0       6.813308      18.171559      -0.913944
H      1.0       6.446517      17.584459      -1.535205
C      6.0       8.339513      18.598801       0.884952
H      1.0       8.997818      18.303823       1.472389
C      6.0       6.981575      20.340119       6.901519
H      1.0       6.724747      21.234567       6.896687
C      6.0       7.946892      19.890041       7.816844
H      1.0       8.313683      20.477141       8.438105
C      6.0       6.420687      19.462799       6.017948
H      1.0       5.762382      19.757777       5.430511
C      6.0       7.778625      17.721481       6.904281
H      1.0       8.035453      16.827033       6.909113
C      6.0       6.813308      18.171559       5.988956
H      1.0       6.446517      17.584459       5.367695
C      6.0       8.339513      18.598801       7.787852
H      1.0       8.997818      18.303823       8.375289
C      6.0       6.981575      20.340119      13.804419
H      1.0       6.724747      21.234567      13.799587
C      6.0       7.946892      19.890041      14.719744
H      1.0       8.313683      20.477141      15.341005
C      6.0       6.420687      19.462799      12.920848
H      1.0       5.762382      19.757777      12.333411
C      6.0       7.778625      17.721481      13.807181
H      1.0       8.035453      16.827033      13.812013
C      6.0       6.813308      18.171559      12.891856
H      1.0       6.446517      17.584459      12.270595
C      6.0       8.339513      18.598801      14.690752
H      1.0       8.997818      18.303823      15.278189
C      6.0       6.981575      20.340119      20.707319
H      1.0       6.724747      21.234567      20.702487
C      6.0       7.946892      19.890041      21.622644
H      1.0       8.313683      20.477141      22.243905
C      6.0       6.420687      19.462799      19.823748
H      1.0       5.762382      19.757777      19.236311
C      6.0       7.778625      17.721481      20.710081
H      1.0       8.035453      16.827033      20.714913
C      6.0       6.813308      18.171559      19.794756
H      1.0       6.446517      17.584459      19.173495
C      6.0       8.339513      18.598801      21.593652
H      1.0       8.997818      18.303823      22.181089
C      6.0      14.361675      10.824719       6.901519
H      1.0      14.104847      11.719167       6.896687
C      6.0      15.326992      10.374641       7.816844
H      1.0      15.693783      10.961741       8.438105
C      6.0      13.800787       9.947399       6.017948
H      1.0      13.142482      10.242377       5.430511
C      6.0      15.158725       8.206081       6.904281
H      1.0      15.415553       7.311633       6.909113
C      6.0      14.193408       8.656159       5.988956
H      1.0      13.826617       8.069059       5.367695
C      6.0      15.719613       9.083401       7.787852
H      1.0      16.377918       8.788423       8.375289
C      6.0      14.361675      10.824719      13.804419
H      1.0      14.104847      11.719167      13.799587
C      6.0      15.326992      10.374641      14.719744
H      1.0      15.693783      10.961741      15.341005
C      6.0      13.800787       9.947399      12.920848
H      1.0      13.142482      10.242377      12.333411
C      6.0      15.158725       8.206081      13.807181
H      1.0      15.415553       7.311633      13.812013
C      6.0      14.193408       8.656159      12.891856
H      1.0      13.826617       8.069059      12.270595
C      6.0      15.719613       9.083401      14.690752
H      1.0      16.377918       8.788423      15.278189
C      6.0      14.361675      20.340119       6.901519
H      1.0      14.104847      21.234567       6.896687
C      6.0      15.326992      19.890041       7.816844
H      1.0      15.693783      20.477141       8.438105
C      6.0      13.800787      19.462799       6.017948
H      1.0      13.142482      19.757777       5.430511
C      6.0      15.158725      17.721481       6.904281
H      1.0      15.415553      16.827033       6.909113
C      6.0      14.193408      18.171559       5.988956
H      1.0      13.826617      17.584459       5.367695
C      6.0      15.719613      18.598801       7.787852
H      1.0      16.377918      18.303823       8.375289
C      6.0      14.361675      20.340119      13.804419
H      1.0      14.104847      21.234567      13.799587
C      6.0      15.326992      19.890041      14.719744
H      1.0      15.693783      20.477141      15.341005
C      6.0      13.800787      19.462799      12.920848
H      1.0      13.142482      19.757777      12.333411
C      6.0      15.158725      17.721481      13.807181
H      1.0      15.415553      16.827033      13.812013
C      6.0      14.193408      18.171559      12.891856
H      1.0      13.826617      17.584459      12.270595
C      6.0      15.719613      18.598801      14.690752
H      1.0      16.377918      18.303823      15.278189
C      6.0      -3.291525       8.206081      10.352969
H      1.0      -3.034697       7.311633      10.348137
C      6.0      -4.256842       8.656159      11.268294
H      1.0      -4.623633       8.069059      11.889555
C      6.0      -2.730637       9.083401       9.469398
H      1.0      -2.072332       8.788423       8.881961
C      6.0      -4.088575      10.824719      10.355731
H      1.0      -4.345403      11.719167      10.360563
C      6.0      -3.123258      10.374641       9.440406
H      1.0      -2.756467      10.961741       8.819145
C      6.0      -4.649463       9.947399      11.239302
H      1.0      -5.307768      10.242377      11.826739
C      6.0      -3.291525      17.721481      10.352969
H      1.0      -3.034697      16.827033      10.348137
C      6.0      -4.256842      18.171559      11.268294
H      1.0      -4.623633      17.584459      11.889555
C      6.0      -2.730637      18.598801       9.469398
H      1.0      -2.072332      18.303823       8.881961
C      6.0      -4.088575      20.340119      10.355731
H      1.0      -4.345403      21.234567      10.360563
C      6.0      -3.123258      19.890041       9.440406
H      1.0      -2.756467      20.477141       8.819145
C      6.0      -4.649463      19.462799      11.239302
H      1.0      -5.307768      19.757777      11.826739
C      6.0       4.088575       8.206081       3.450069
H      1.0       4.345403       7.311633       3.445237
C      6.0       3.123258       8.656159       4.365394
H      1.0       2.756467       8.069059       4.986655
C      6.0       4.649463       9.083401       2.566498
H      1.0       5.307768       8.788423       1.979061
C      6.0       3.291525      10.824719       3.452831
H      1.0       3.034697      11.719167       3.457663
C      6.0       4.256842      10.374641       2.537506
H      1.0       4.623633      10.961741       1.916245
C      6.0       2.730637       9.947399       4.336402
H      1.0       2.072332      10.242377       4.923839
C      6.0       4.088575       8.206081      10.352969
H      1.0       4.345403       7.311633      10.348137
C      6.0       3.123258       8.656159      11.268294
H      1.0       2.756467       8.069059      11.889555
C      6.0       4.649463       9.083401       9.469398
H      1.0       5.307768       8.788423       8.881961
C      6.0       3.291525      10.824719      10.355731
H      1.0       3.034697      11.719167      10.360563
C      6.0       4.256842      10.374641       9.440406
H      1.0       4.623633      10.961741       8.819145
C      6.0       2.730637       9.947399      11.239302
H      1.0       2.072332      10.242377      11.826739
C      6.0       4.088575       8.206081      17.255869
H      1.0       4.345403       7.311633      17.251037
C      6.0       3.123258       8.656159      18.171194
H      1.0       2.756467       8.069059      18.792455
C      6.0       4.649463       9.083401      16.372298
H      1.0       5.307768       8.788423      15.784861
C      6.0       3.291525      10.824719      17.258631
H      1.0       3.034697      11.719167      17.263463
C      6.0       4.256842      10.374641      16.343306
H      1.0       4.623633      10.961741      15.722045
C      6.0       2.730637       9.947399      18.142202
H      1.0       2.072332      10.242377      18.729639
C      6.0       4.088575      17.721481       3.450069
H      1.0       4.345403      16.827033       3.445237
C      6.0       3.123258      18.171559       4.365394
H      1.0       2.756467      17.584459       4.986655
C      6.0       4.649463      18.598801       2.566498
H      1.0       5.307768      18.303823       1.979061
C      6.0       3.291525      20.340119       3.452831
H      1.0       3.034697      21.234567       3.457663
C      6.0       4.256842      19.890041       2.537506
H      1.0       4.623633      20.477141       1.916245
C      6.0       2.730637      19.462799       4.336402
H      1.0       2.072332      19.757777       4.923839
C      6.0       4.088575      17.721481      10.352969
H      1.0       4.345403      16.827033      10.348137
C      6.0       3.123258      18.171559      11.268294
H      1.0       2.756467      17.584459      11.889555
C      6.0       4.649463      18.598801       9.469398
H      1.0       5.307768      18.303823       8.881961
C      6.0       3.291525      20.340119      10.355731
H      1.0       3.034697      21.234567      10.360563
C      6.0       4.256842      19.890041       9.440406
H      1.0       4.623633      20.477141       8.819145
C      6.0       2.730637      19.462799      11.239302
H      1.0       2.072332      19.757777      11.826739
C      6.0       4.088575      17.721481      17.255869
H      1.0       4.345403      16.827033      17.251037
C      6.0       3.123258      18.171559      18.171194
H      1.0       2.756467      17.584459      18.792455
C      6.0       4.649463      18.598801      16.372298
H      1.0       5.307768      18.303823      15.784861
C      6.0       3.291525      20.340119      17.258631
H      1.0       3.034697      21.234567      17.263463
C      6.0       4.256842      19.890041      16.343306
H      1.0       4.623633      20.477141      15.722045
C      6.0       2.730637      19.462799      18.142202
H      1.0       2.072332      19.757777      18.729639
C      6.0      11.468675       8.206081       3.450069
H      1.0      11.725503       7.311633       3.445237
C      6.0      10.503358       8.656159       4.365394
H      1.0      10.136567       8.069059       4.986655
C      6.0      12.029563       9.083401       2.566498
H      1.0      12.687868       8.788423       1.979061
C      6.0      10.671625      10.824719       3.452831
H      1.0      10.414797      11.719167       3.457663
C      6.0      11.636942      10.374641       2.537506
H      1.0      12.003733      10.961741       1.916245
C      6.0      10.110737       9.947399       4.336402
H      1.0       9.452432      10.242377       4.923839
C      6.0      11.468675       8.206081      10.352969
H      1.0      11.725503       7.311633      10.348137
C      6.0      10.503358       8.656159      11.268294
H      1.0      10.136567       8.069059      11.889555
C      6.0      12.029563       9.083401       9.469398
H      1.0      12.687868       8.788423       8.881961
C      6.0      10.671625      10.824719      10.355731
H      1.0      10.414797      11.719167      10.360563
C      6.0      11.636942      10.374641       9.440406
H      1.0      12.003733      10.961741       8.819145
C      6.0      10.110737       9.947399      11.239302
H      1.0       9.452432      10.242377      11.826739
C      6.0      11.468675       8.206081      17.255869
H      1.0      11.725503       7.311633      17.251037
C      6.0      10.503358       8.656159      18.171194
H      1.0      10.136567       8.069059      18.792455
C      6.0      12.029563       9.083401      16.372298
H      1.0      12.687868       8.788423      15.784861
C      6.0      10.671625      10.824719      17.258631
H      1.0      10.414797      11.719167      17.263463
C      6.0      11.636942      10.374641      16.343306
H      1.0      12.003733      10.961741      15.722045
C      6.0      10.110737       9.947399      18.142202
H      1.0       9.452432      10.242377      18.729639
C      6.0      11.468675      17.721481       3.450069
H      1.0      11.725503      16.827033       3.445237
C      6.0      10.503358      18.171559       4.365394
H      1.0      10.136567      17.584459       4.986655
C      6.0      12.029563      18.598801       2.566498
H      1.0      12.687868      18.303823       1.979061
C      6.0      10.671625      20.340119       3.452831
H      1.0      10.414797      21.234567       3.457663
C      6.0      11.636942      19.890041       2.537506
H      1.0      12.003733      20.477141       1.916245
C      6.0      10.110737      19.462799       4.336402
H      1.0       9.452432      19.757777       4.923839
C      6.0      11.468675      17.721481      10.352969
H      1.0      11.725503      16.827033      10.348137
C      6.0      10.503358      18.171559      11.268294
H      1.0      10.136567      17.584459      11.889555
C      6.0      12.029563      18.598801       9.469398
H      1.0      12.687868      18.303823       8.881961
C      6.0      10.671625      20.340119      10.355731
H      1.0      10.414797      21.234567      10.360563
C      6.0      11.636942      19.890041       9.440406
H      1.0      12.003733      20.477141       8.819145
C      6.0      10.110737      19.462799      11.239302
H      1.0       9.452432      19.757777      11.826739
C      6.0      11.468675      17.721481      17.255869
H      1.0      11.725503      16.827033      17.251037
C      6.0      10.503358      18.171559      18.171194
H      1.0      10.136567      17.584459      18.792455
C      6.0      12.029563      18.598801      16.372298
H      1.0      12.687868      18.303823      15.784861
C      6.0      10.671625      20.340119      17.258631
H      1.0      10.414797      21.234567      17.263463
C      6.0      11.636942      19.890041      16.343306
H      1.0      12.003733      20.477141      15.722045
C      6.0      10.110737      19.462799      18.142202
H      1.0       9.452432      19.757777      18.729639
C      6.0      18.848775       8.206081      10.352969
H      1.0      19.105603       7.311633      10.348137
C      6.0      17.883458       8.656159      11.268294
H      1.0      17.516667       8.069059      11.889555
C      6.0      19.409663       9.083401       9.469398
H      1.0      20.067968       8.788423       8.881961
C      6.0      18.051725      10.824719      10.355731
H      1.0      17.794897      11.719167      10.360563
C      6.0      19.017042      10.374641       9.440406
H      1.0      19.383833      10.961741       8.819145
C      6.0      17.490837       9.947399      11.239302
H      1.0      16.832532      10.242377      11.826739
C      6.0      18.848775      17.721481      10.352969
H      1.0      19.105603      16.827033      10.348137
C      6.0      17.883458      18.171559      11.268294
H      1.0      17.516667      17.584459      11.889555
C      6.0      19.409663      18.598801       9.469398
H      1.0      20.067968      18.303823       8.881961
C      6.0      18.051725      20.340119      10.355731
H      1.0      17.794897      21.234567      10.360563
C      6.0      19.017042      19.890041       9.440406
H      1.0      19.383833      20.477141       8.819145
C      6.0      17.490837      19.462799      11.239302
H      1.0      16.832532      19.757777      11.826739
C      6.0       0.398525       6.067019      10.355731
H      1.0       0.655353       6.961467      10.360563
C      6.0      -0.566792       5.616941       9.440406
H      1.0      -0.933583       6.204041       8.819145
C      6.0       0.959413       5.189699      11.239302
H      1.0       1.617718       5.484677      11.826739
C      6.0      -0.398525       3.448381      10.352969
H      1.0      -0.655353       2.553933      10.348137
C      6.0       0.566792       3.898459      11.268294
H      1.0       0.933583       3.311359      11.889555
C      6.0      -0.959413       4.325701       9.469398
H      1.0      -1.617718       4.030723       8.881961
C      6.0       0.398525      15.582419       3.452831
H      1.0       0.655353      16.476867       3.457663
C      6.0      -0.566792      15.132341       2.537506
H      1.0      -0.933583      15.719441       1.916245
C      6.0       0.959413      14.705099       4.336402
H      1.0       1.617718      15.000077       4.923839
C      6.0      -0.398525      12.963781       3.450069
H      1.0      -0.655353      12.069333       3.445237
C      6.0       0.566792      13.413859       4.365394
H      1.0       0.933583      12.826759       4.986655
C      6.0      -0.959413      13.841101       2.566498
H      1.0      -1.617718      13.546123       1.979061
C      6.0       0.398525      15.582419      10.355731
H      1.0       0.655353      16.476867      10.360563
C      6.0      -0.566792      15.132341       9.440406
H      1.0      -0.933583      15.719441       8.819145
C      6.0       0.959413      14.705099      11.239302
H      1.0       1.617718      15.000077      11.826739
C      6.0      -0.398525      12.963781      10.352969
H      1.0      -0.655353      12.069333      10.348137
C      6.0       0.566792      13.413859      11.268294
H      1.0       0.933583      12.826759      11.889555
C      6.0      -0.959413      13.841101       9.469398
H      1.0      -1.617718      13.546123       8.881961
C      6.0       0.398525      15.582419      17.258631
H      1.0       0.655353      16.476867      17.263463
C      6.0      -0.566792      15.132341      16.343306
H      1.0      -0.933583      15.719441      15.722045
C      6.0       0.959413      14.705099      18.142202
H      1.0       1.617718      15.000077      18.729639
C      6.0      -0.398525      12.963781      17.255869
H      1.0      -0.655353      12.069333      17.251037
C      6.0       0.566792      13.413859      18.171194
H      1.0       0.933583      12.826759      18.792455
C      6.0      -0.959413      13.841101      16.372298
H      1.0      -1.617718      13.546123      15.784861
C      6.0       0.398525      25.097819      10.355731
H      1.0       0.655353      25.992267      10.360563
C      6.0      -0.566792      24.647741       9.440406
H      1.0      -0.933583      25.234841       8.819145
C      6.0       0.959413      24.220499      11.239302
H      1.0       1.617718      24.515477      11.826739
C      6.0      -0.398525      22.479181      10.352969
H      1.0      -0.655353      21.584733      10.348137
C      6.0       0.566792      22.929259      11.268294
H      1.0       0.933583      22.342159      11.889555
C      6.0      -0.959413      23.356501       9.469398
H      1.0      -1.617718      23.061523       8.881961
C      6.0       7.778625       6.067019       3.452831
H      1.0       8.035453       6.961467       3.457663
C      6.0       6.813308       5.616941       2.537506
H      1.0       6.446517       6.204041       1.916245
C      6.0       8.339513       5.189699       4.336402
H      1.0       8.997818       5.484677       4.923839
C      6.0       6.981575       3.448381       3.450069
H      1.0       6.724747       2.553933       3.445237
C      6.0       7.946892       3.898459       4.365394
H      1.0       8.313683       3.311359       4.986655
C      6.0       6.420687       4.325701       2.566498
H      1.0       5.762382       4.030723       1.979061
C      6.0       7.778625       6.067019      10.355731
H      1.0       8.035453       6.961467      10.360563
C      6.0       6.813308       5.616941       9.440406
H      1.0       6.446517       6.204041       8.819145
C      6.0       8.339513       5.189699      11.239302
H      1.0       8.997818       5.484677      11.826739
C      6.0       6.981575       3.448381      10.352969
H      1.0       6.724747       2.553933      10.348137
C      6.0       7.946892       3.898459      11.268294
H      1.0       8.313683       3.311359      11.889555
C      6.0       6.420687       4.325701       9.469398
H      1.0       5.762382       4.030723       8.881961
C      6.0       7.778625       6.067019      17.258631
H      1.0       8.035453       6.961467      17.263463
C      6.0       6.813308       5.616941      16.343306
H      1.0       6.446517       6.204041      15.722045
C      6.0       8.339513       5.189699      18.142202
H      1.0       8.997818       5.484677      18.729639
C      6.0       6.981575       3.448381      17.255869
H      1.0       6.724747       2.553933      17.251037
C      6.0       7.946892       3.898459      18.171194
H      1.0       8.313683       3.311359      18.792455
C      6.0       6.420687       4.325701      16.372298
H      1.0       5.762382       4.030723      15.784861
C      6.0       7.778625      15.582419       3.452831
H      1.0       8.035453      16.476867       3.457663
C      6.0       6.813308      15.132341       2.537506
H      1.0       6.446517      15.719441       1.916245
C      6.0       8.339513      14.705099       4.336402
H      1.0       8.997818      15.000077       4.923839
C      6.0       6.981575      12.963781       3.450069
H      1.0       6.724747      12.069333       3.445237
C      6.0       7.946892      13.413859       4.365394
H      1.0       8.313683      12.826759       4.986655
C      6.0       6.420687      13.841101       2.566498
H      1.0       5.762382      13.546123       1.979061
C      6.0       7.778625      15.582419      10.355731
H      1.0       8.035453      16.476867      10.360563
C      6.0       6.813308      15.132341       9.440406
H      1.0       6.446517      15.719441       8.819145
C      6.0       8.339513      14.705099      11.239302
H      1.0       8.997818      15.000077      11.826739
C      6.0       6.981575      12.963781      10.352969
H      1.0       6.724747      12.069333      10.348137
C      6.0       7.946892      13.413859      11.268294
H      1.0       8.313683      12.826759      11.889555
C      6.0       6.420687      13.841101       9.469398
H      1.0       5.762382      13.546123       8.881961
C      6.0       7.778625      15.582419      17.258631
H      1.0       8.035453      16.476867      17.263463
C      6.0       6.813308      15.132341      16.343306
H      1.0       6.446517      15.719441      15.722045
C      6.0       8.339513      14.705099      18.142202
H      1.0       8.997818      15.000077      18.729639
C      6.0       6.981575      12.963781      17.255869
H      1.0       6.724747      12.069333      17.251037
C      6.0       7.946892      13.413859      18.171194
H      1.0       8.313683      12.826759      18.792455
C      6.0       6.420687      13.841101      16.372298
H      1.0       5.762382      13.546123      15.784861
C      6.0       7.778625      25.097819       3.452831
H      1.0       8.035453      25.992267       3.457663
C      6.0       6.813308      24.647741       2.537506
H      1.0       6.446517      25.234841       1.916245
C      6.0       8.339513      24.220499       4.336402
H      1.0       8.997818      24.515477       4.923839
C      6.0       6.981575      22.479181       3.450069
H      1.0       6.724747      21.584733       3.445237
C      6.0       7.946892      22.929259       4.365394
H      1.0       8.313683      22.342159       4.986655
C      6.0       6.420687      23.356501       2.566498